[VALIDATOR STDOUT]
Checking plan: /home/jfan5/Safety-gen/runs/benchmark/optic/blocksworld_20260205_140901/blocksworld/optic_results/bw_ops3_n09_seed9001.plan
Plan to validate:

Plan size: 20
1:
(unstack b3 b4)
 
2:
(putdown b3)
 
3:
(unstack b7 b8)
 
4:
(putdown b7)
 
5:
(pickup b9)
 
6:
(stack b9 b8)
 
7:
(unstack b4 b1)
 
8:
(stack b4 b3)
 
9:
(pickup b1)
 
10:
(stack b1 b7)
 
11:
(pickup b6)
 
12:
(stack b6 b1)
 
13:
(unstack b9 b8)
 
14:
(putdown b9)
 
15:
(unstack b8 b5)
 
16:
(stack b8 b6)
 
17:
(pickup b9)
 
18:
(stack b9 b8)
 
19:
(pickup b5)
 
20:
(stack b5 b9)
 

Plan Validation details
-----------------------

Checking next happening (time 1)
Deleting (on b3 b4)
Deleting (clear b3)
Deleting (arm-empty)
Adding (holding b3)
Adding (clear b4)

Checking next happening (time 2)
Deleting (holding b3)
Adding (clear b3)
Adding (arm-empty)
Adding (on-table b3)

Checking next happening (time 3)
Deleting (on b7 b8)
Deleting (clear b7)
Deleting (arm-empty)
Adding (holding b7)
Adding (clear b8)

Checking next happening (time 4)
Deleting (holding b7)
Adding (clear b7)
Adding (arm-empty)
Adding (on-table b7)

Checking next happening (time 5)
Deleting (clear b9)
Deleting (on-table b9)
Deleting (arm-empty)
Adding (holding b9)

Checking next happening (time 6)
Deleting (clear b8)
Deleting (holding b9)
Adding (arm-empty)
Adding (clear b9)
Adding (on b9 b8)

Checking next happening (time 7)
Deleting (on b4 b1)
Deleting (clear b4)
Deleting (arm-empty)
Adding (holding b4)
Adding (clear b1)

Checking next happening (time 8)
Deleting (clear b3)
Deleting (holding b4)
Adding (arm-empty)
Adding (clear b4)
Adding (on b4 b3)

Checking next happening (time 9)
Deleting (clear b1)
Deleting (on-table b1)
Deleting (arm-empty)
Adding (holding b1)

Checking next happening (time 10)
Deleting (clear b7)
Deleting (holding b1)
Adding (arm-empty)
Adding (clear b1)
Adding (on b1 b7)

Checking next happening (time 11)
Deleting (clear b6)
Deleting (on-table b6)
Deleting (arm-empty)
Adding (holding b6)

Checking next happening (time 12)
Deleting (clear b1)
Deleting (holding b6)
Adding (arm-empty)
Adding (clear b6)
Adding (on b6 b1)

Checking next happening (time 13)
Deleting (on b9 b8)
Deleting (clear b9)
Deleting (arm-empty)
Adding (holding b9)
Adding (clear b8)

Checking next happening (time 14)
Deleting (holding b9)
Adding (clear b9)
Adding (arm-empty)
Adding (on-table b9)

Checking next happening (time 15)
Deleting (on b8 b5)
Deleting (clear b8)
Deleting (arm-empty)
Adding (holding b8)
Adding (clear b5)

Checking next happening (time 16)
Deleting (clear b6)
Deleting (holding b8)
Adding (arm-empty)
Adding (clear b8)
Adding (on b8 b6)

Checking next happening (time 17)
Deleting (clear b9)
Deleting (on-table b9)
Deleting (arm-empty)
Adding (holding b9)

Checking next happening (time 18)
Deleting (clear b8)
Deleting (holding b9)
Adding (arm-empty)
Adding (clear b9)
Adding (on b9 b8)

Checking next happening (time 19)
Deleting (clear b5)
Deleting (on-table b5)
Deleting (arm-empty)
Adding (holding b5)

Checking next happening (time 20)
Deleting (clear b9)
Deleting (holding b5)
Adding (arm-empty)
Adding (clear b5)
Adding (on b5 b9)
Plan executed successfully - checking goal
Plan valid
Final value: 20 

Successful plans:
Value: 20
 /home/jfan5/Safety-gen/runs/benchmark/optic/blocksworld_20260205_140901/blocksworld/optic_results/bw_ops3_n09_seed9001.plan 20
